letting initialStacks = [17, 45, 32, 41, 29, 22, 12, 25, 35, 11, 51, 43, 7, 48, 42, 46, 13, 18, 33, 50, 49, 16, 37, 20, 2, 26, 19, 5, 9, 47, 24, 4, 1, 15, 40, 21, 39, 14, 6, 34, 36, 31, 30, 8, 3, 28, 27, 23, 38, 44, 10]
